363,88
532,112
474,374
548,338
690,347
681,466
1001,569
1080,535
644,643
554,533
596,433
660,385
622,397
494,501
468,514
463,564
598,662
737,761
1166,563
839,188
639,140
570,64
411,406
307,596
207,481
597,-127
801,36
681,256
708,321
817,139
956,131
945,42
787,460
829,429
736,235
709,229
737,51
597,939
